100
300
209
209
204
201
200
196
189
187
183
181
180
179
177
177
177
164
164
162
162
160
159
156
151
149
148
146
142
142
140
140
139
135
135
135
134
132
130
126
124
124
123
122
119
116
115
107
105
105
104
100
99
99
98
98
97
91
91
90
90
89
87
86
85
84
84
84
83
83
83
83
81
80
79
79
77
77
77
77
76
75
74
72
72
68
65
61
54
54
53
50
47
46
39
39
37
37
34
32
31
30
